55723
7, 40, 43, 6, 3, 28, 49, 55, 26, 34, 54, 47, 30, 4, 18, 12, 9, 14, 2, 45, 42, 33, 27, 1, 31, 25, 11, 52, 15, 36, 46, 39, 16, 10, 22, 29, 21, 23, 53, 17, 48, 19, 44, 38, 8, 41, 32, 13, 51, 37, 20, 50, 24, 35, 5
